    # -- Styles used in "ForceField" --
    # -- (Changing these styles will change the formulas above) --
    units           real
    atom_style      full
    bond_style      harmonic
    angle_style     harmonic
    dihedral_style  charmm
    pair_style      lj/cut 11.0
