pair_coeff  1  1      0.10 2.0
pair_coeff  2  2      2.50 3.6
pair_coeff  3  3      0.10 3.6
bond_coeff     2   30.0   3.4
bond_coeff     1    30.0   3.7
angle_coeff 1    30.00  114
angle_coeff 2   30.00  123
dihedral_coeff  1    -0.5 1 -180 0.0
dihedral_coeff  2    -1.5 1 -180 0.0
